
100
24231

783 683
192 92
718 618
942 842
935 835
616 516
732 632
470 370
629 529
208 108
783 683
701 601
382 282
479 379
837 737
544 444
1060 960
1072 972
939 839
192 92
176 76
389 289
462 362
805 705
927 827
663 563
740 640
674 574
135 35
627 527
314 214
517 417
109 9
756 656
1011 911
169 69
681 581
124 24
452 352
260 160
961 861
829 729
997 897
318 218
819 719
800 700
611 511
1017 917
725 625
383 283
818 718
582 482
314 214
718 618
149 49
550 450
657 557
103 3
749 649
189 89
750 650
442 342
130 30
1100 1000
165 65
257 157
606 506
346 246
631 531
575 475
677 577
644 544
395 295
312 212
795 695
529 429
621 521
1016 916
109 9
378 278
664 564
154 54
854 754
502 402
417 317
295 195
1067 967
147 47
922 822
805 705
998 898
802 702
447 347
650 550
1022 922
141 41
950 850
774 674
297 197
1067 967
